SCIP version 5.0.0 [precision: 8 byte] [memory: block] [mode: optimized] [LP solver: NONE] [GitHash: 3bbd232]
Copyright (C) 2002-2017 Konrad-Zuse-Zentrum fuer Informationstechnik Berlin (ZIB)

External codes: 
  Readline EditLine w  GNU library for command line editing (gnu.org/s/readline)
  CppAD 20160000.1     Algorithmic Differentiation of C++ algorithms developed by B. Bell (www.coin-or.org/CppAD)
  ZLIB 1.2.5           General purpose compression library by J. Gailly and M. Adler (zlib.net)
  GMP 6.1.2            GNU Multiple Precision Arithmetic Library developed by T. Granlund (gmplib.org)

user parameter file <scip.set> not found - using default parameters

read problem <../../Split_data/output/statG/1/0_sample_statG.logreg>
============

File name	:	../../Split_data/output/statG/1/0_sample_statG.logreg
Problem name 	:	0_sample_statG
Number of data	:	800
Number of var	:	61
The given data has linear dependence
13 sets of column vector are linearly dependent:

[dim=1] time: 0.040154
[dim=2] time: 0.091695
[dim=3] time: 0.132681
[dim=4] time: 0.178935
[dim=5] time: 0.219975
[dim=6] time: 0.261568
[dim=7] time: 0.303677
[dim=8] time: 0.346331
[dim=9] time: 0.393952
[dim=10] time: 0.439254
[dim=11] time: 0.479769
[dim=12] time: 0.520358
[dim=13] time: 0.57984
[dim=14] time: 0.618891
[dim=15] time: 0.657258
[dim=16] time: 0.696878
[dim=17] time: 0.737884
[dim=18] time: 0.775856
[dim=19] time: 0.816469
[dim=20] time: 0.856856
[dim=21] Time of forward = 0.910491sec.
AIC: 779.065
k: 20

[dim=48] time: 0.112273
[dim=47] time: 0.197742
[dim=46] time: 0.276881
[dim=45] time: 0.342357
[dim=44] time: 0.41519
[dim=43] time: 0.483941
[dim=42] time: 0.53969
[dim=41] time: 0.595533
[dim=40] time: 0.65362
[dim=39] time: 0.698317
[dim=38] time: 0.745952
[dim=37] time: 0.792971
[dim=36] time: 0.842804
[dim=35] time: 0.902651
[dim=34] time: 0.941672
[dim=33] time: 0.99581
[dim=32] time: 1.03687
[dim=31] time: 1.07628
[dim=30] time: 1.1161
[dim=29] time: 1.15729
[dim=28] time: 1.18275
[dim=27] time: 1.21645
[dim=26] time: 1.24993
[dim=25] time: 1.28523
[dim=24] Time of backward = 1.32265sec.
AIC: 788.825
k: 25
